/* Traveling salesman */

/* Objective function */
min: +9999 x1_1 +3 x1_2 +5 x1_3 +48 x1_4 +48 x1_5 +8 x1_6 +8 x1_7 +5 x1_8 +5 x1_9 +3 x1_10 +3 x1_11 +3 x1_13 +5 x1_14 +8 x1_15 +8 x1_16 +5 x1_17 +3 x2_1 +9999 x2_2 +3 x2_3 +48 x2_4 +48 x2_5 +8 x2_6 +8 x2_7 +5 x2_8 +5 x2_9 +3 x2_12 +3 x2_14 +8 x2_15 +8 x2_16 +5 x2_17 +5 x3_1 +3 x3_2 +9999 x3_3 +72 x3_4 +72 x3_5 +48 x3_6 +48 x3_7 +24 x3_8 +24 x3_9 +3 x3_10 +3 x3_11 +5 x3_12 +3 x3_13 +48 x3_15 +48 x3_16 +24 x3_17 +48 x4_1 +48 x4_2 +74 x4_3 +9999 x4_4 +6 x4_6 +6 x4_7 +12 x4_8 +12 x4_9 +48 x4_10 +48 x4_11 +48 x4_12 +48 x4_13 +74 x4_14 +6 x4_15 +6 x4_16 +12 x4_17 +48 x5_1 +48 x5_2 +74 x5_3 +9999 x5_5 +6 x5_6 +6 x5_7 +12 x5_8 +12 x5_9 +48 x5_10 +48 x5_11 +48 x5_12 +48 x5_13 +74 x5_14 +6 x5_15 +6 x5_16 +12 x5_17 +8 x6_1 +8 x6_2 +50 x6_3 +6 x6_4 +6 x6_5 +9999 x6_6 +8 x6_8 +8 x6_9 +8 x6_10 +8 x6_11 +8 x6_12 +8 x6_13 +50 x6_14 +8 x6_17 +8 x7_1 +8 x7_2 +50 x7_3 +6 x7_4 +6 x7_5 +9999 x7_7 +8 x7_8 +8 x7_9 +8 x7_10 +8 x7_11 +8 x7_12 +8 x7_13 +50 x7_14 +8 x7_17 +5 x8_1 +5 x8_2 +26 x8_3 +12 x8_4 +12 x8_5 +8 x8_6 +8 x8_7 +9999 x8_8 +5 x8_10 +5 x8_11 +5 x8_12 +5 x8_13 +26 x8_14 +8 x8_15 +8 x8_16 +5 x9_1 +5 x9_2 +26 x9_3 +12 x9_4 +12 x9_5 +8 x9_6 +8 x9_7 +9999 x9_9 +5 x9_10 +5 x9_11 +5 x9_12 +5 x9_13 +26 x9_14 +8 x9_15 +8 x9_16 +3 x10_1 +3 x10_3 +48 x10_4 +48 x10_5 +8 x10_6 +8 x10_7 +5 x10_8 +5 x10_9 +9999 x10_10 +3 x10_12 +3 x10_14 +8 x10_15 +8 x10_16 +5 x10_17 +3 x11_1 +3 x11_3 +48 x11_4 +48 x11_5 +8 x11_6 +8 x11_7 +5 x11_8 +5 x11_9 +9999 x11_11 +3 x11_12 +3 x11_14 +8 x11_15 +8 x11_16 +5 x11_17 +3 x12_2 +5 x12_3 +48 x12_4 +48 x12_5 +8 x12_6 +8 x12_7 +5 x12_8 +5 x12_9 +3 x12_10 +3 x12_11 +9999 x12_12 +3 x12_13 +5 x12_14 +8 x12_15 +8 x12_16 +5 x12_17 +3 x13_1 +3 x13_3 +48 x13_4 +48 x13_5 +8 x13_6 +8 x13_7 +5 x13_8 +5 x13_9 +3 x13_12 +9999 x13_13 +3 x13_14 +8 x13_15 +8 x13_16 +5 x13_17 +5 x14_1 +3 x14_2 +72 x14_4 +72 x14_5 +48 x14_6 +48 x14_7 +24 x14_8 +24 x14_9 +3 x14_10 +3 x14_11 +5 x14_12 +3 x14_13 +9999 x14_14 +48 x14_15 +48 x14_16 +24 x14_17 +8 x15_1 +8 x15_2 +50 x15_3 +6 x15_4 +6 x15_5 +8 x15_8 +8 x15_9 +8 x15_10 +8 x15_11 +8 x15_12 +8 x15_13 +50 x15_14 +9999 x15_15 +8 x15_17 +8 x16_1 +8 x16_2 +50 x16_3 +6 x16_4 +6 x16_5 +8 x16_8 +8 x16_9 +8 x16_10 +8 x16_11 +8 x16_12 +8 x16_13 +50 x16_14 +9999 x16_16 +8 x16_17 +5 x17_1 +5 x17_2 +26 x17_3 +12 x17_4 +12 x17_5 +8 x17_6 +8 x17_7 +5 x17_10 +5 x17_11 +5 x17_12 +5 x17_13 +26 x17_14 +8 x17_15 +8 x17_16 +9999 x17_17;

/* Constraints */
+x1_2 +x1_3 +x1_4 +x1_5 +x1_6 +x1_7 +x1_8 +x1_9 +x1_10 +x1_11 +x1_12 +x1_13 +x1_14 +x1_15 +x1_16 +x1_17 = 1;
+x2_1 +x2_3 +x2_4 +x2_5 +x2_6 +x2_7 +x2_8 +x2_9 +x2_10 +x2_11 +x2_12 +x2_13 +x2_14 +x2_15 +x2_16 +x2_17 = 1;
+x3_1 +x3_2 +x3_4 +x3_5 +x3_6 +x3_7 +x3_8 +x3_9 +x3_10 +x3_11 +x3_12 +x3_13 +x3_14 +x3_15 +x3_16 +x3_17 = 1;
+x4_1 +x4_2 +x4_3 +x4_5 +x4_6 +x4_7 +x4_8 +x4_9 +x4_10 +x4_11 +x4_12 +x4_13 +x4_14 +x4_15 +x4_16 +x4_17 = 1;
+x5_1 +x5_2 +x5_3 +x5_4 +x5_6 +x5_7 +x5_8 +x5_9 +x5_10 +x5_11 +x5_12 +x5_13 +x5_14 +x5_15 +x5_16 +x5_17 = 1;
+x6_1 +x6_2 +x6_3 +x6_4 +x6_5 +x6_7 +x6_8 +x6_9 +x6_10 +x6_11 +x6_12 +x6_13 +x6_14 +x6_15 +x6_16 +x6_17 = 1;
+x7_1 +x7_2 +x7_3 +x7_4 +x7_5 +x7_6 +x7_8 +x7_9 +x7_10 +x7_11 +x7_12 +x7_13 +x7_14 +x7_15 +x7_16 +x7_17 = 1;
+x8_1 +x8_2 +x8_3 +x8_4 +x8_5 +x8_6 +x8_7 +x8_9 +x8_10 +x8_11 +x8_12 +x8_13 +x8_14 +x8_15 +x8_16 +x8_17 = 1;
+x9_1 +x9_2 +x9_3 +x9_4 +x9_5 +x9_6 +x9_7 +x9_8 +x9_10 +x9_11 +x9_12 +x9_13 +x9_14 +x9_15 +x9_16 +x9_17 = 1;
+x10_1 +x10_2 +x10_3 +x10_4 +x10_5 +x10_6 +x10_7 +x10_8 +x10_9 +x10_11 +x10_12 +x10_13 +x10_14 +x10_15 +x10_16 +x10_17 = 1;
+x11_1 +x11_2 +x11_3 +x11_4 +x11_5 +x11_6 +x11_7 +x11_8 +x11_9 +x11_10 +x11_12 +x11_13 +x11_14 +x11_15 +x11_16 +x11_17 = 1;
+x12_1 +x12_2 +x12_3 +x12_4 +x12_5 +x12_6 +x12_7 +x12_8 +x12_9 +x12_10 +x12_11 +x12_13 +x12_14 +x12_15 +x12_16 +x12_17 = 1;
+x13_1 +x13_2 +x13_3 +x13_4 +x13_5 +x13_6 +x13_7 +x13_8 +x13_9 +x13_10 +x13_11 +x13_12 +x13_14 +x13_15 +x13_16 +x13_17 = 1;
+x14_1 +x14_2 +x14_3 +x14_4 +x14_5 +x14_6 +x14_7 +x14_8 +x14_9 +x14_10 +x14_11 +x14_12 +x14_13 +x14_15 +x14_16 +x14_17 = 1;
+x15_1 +x15_2 +x15_3 +x15_4 +x15_5 +x15_6 +x15_7 +x15_8 +x15_9 +x15_10 +x15_11 +x15_12 +x15_13 +x15_14 +x15_16 +x15_17 = 1;
+x16_1 +x16_2 +x16_3 +x16_4 +x16_5 +x16_6 +x16_7 +x16_8 +x16_9 +x16_10 +x16_11 +x16_12 +x16_13 +x16_14 +x16_15 +x16_17 = 1;
+x17_1 +x17_2 +x17_3 +x17_4 +x17_5 +x17_6 +x17_7 +x17_8 +x17_9 +x17_10 +x17_11 +x17_12 +x17_13 +x17_14 +x17_15 +x17_16 = 1;
+x2_1 +x3_1 +x4_1 +x5_1 +x6_1 +x7_1 +x8_1 +x9_1 +x10_1 +x11_1 +x12_1 +x13_1 +x14_1 +x15_1 +x16_1 +x17_1 = 1;
+x1_2 +x3_2 +x4_2 +x5_2 +x6_2 +x7_2 +x8_2 +x9_2 +x10_2 +x11_2 +x12_2 +x13_2 +x14_2 +x15_2 +x16_2 +x17_2 = 1;
+x1_3 +x2_3 +x4_3 +x5_3 +x6_3 +x7_3 +x8_3 +x9_3 +x10_3 +x11_3 +x12_3 +x13_3 +x14_3 +x15_3 +x16_3 +x17_3 = 1;
+x1_4 +x2_4 +x3_4 +x5_4 +x6_4 +x7_4 +x8_4 +x9_4 +x10_4 +x11_4 +x12_4 +x13_4 +x14_4 +x15_4 +x16_4 +x17_4 = 1;
+x1_5 +x2_5 +x3_5 +x4_5 +x6_5 +x7_5 +x8_5 +x9_5 +x10_5 +x11_5 +x12_5 +x13_5 +x14_5 +x15_5 +x16_5 +x17_5 = 1;
+x1_6 +x2_6 +x3_6 +x4_6 +x5_6 +x7_6 +x8_6 +x9_6 +x10_6 +x11_6 +x12_6 +x13_6 +x14_6 +x15_6 +x16_6 +x17_6 = 1;
+x1_7 +x2_7 +x3_7 +x4_7 +x5_7 +x6_7 +x8_7 +x9_7 +x10_7 +x11_7 +x12_7 +x13_7 +x14_7 +x15_7 +x16_7 +x17_7 = 1;
+x1_8 +x2_8 +x3_8 +x4_8 +x5_8 +x6_8 +x7_8 +x9_8 +x10_8 +x11_8 +x12_8 +x13_8 +x14_8 +x15_8 +x16_8 +x17_8 = 1;
+x1_9 +x2_9 +x3_9 +x4_9 +x5_9 +x6_9 +x7_9 +x8_9 +x10_9 +x11_9 +x12_9 +x13_9 +x14_9 +x15_9 +x16_9 +x17_9 = 1;
+x1_10 +x2_10 +x3_10 +x4_10 +x5_10 +x6_10 +x7_10 +x8_10 +x9_10 +x11_10 +x12_10 +x13_10 +x14_10 +x15_10 +x16_10 +x17_10 = 1;
+x1_11 +x2_11 +x3_11 +x4_11 +x5_11 +x6_11 +x7_11 +x8_11 +x9_11 +x10_11 +x12_11 +x13_11 +x14_11 +x15_11 +x16_11 +x17_11 = 1;
+x1_12 +x2_12 +x3_12 +x4_12 +x5_12 +x6_12 +x7_12 +x8_12 +x9_12 +x10_12 +x11_12 +x13_12 +x14_12 +x15_12 +x16_12 +x17_12 = 1;
+x1_13 +x2_13 +x3_13 +x4_13 +x5_13 +x6_13 +x7_13 +x8_13 +x9_13 +x10_13 +x11_13 +x12_13 +x14_13 +x15_13 +x16_13 +x17_13 = 1;
+x1_14 +x2_14 +x3_14 +x4_14 +x5_14 +x6_14 +x7_14 +x8_14 +x9_14 +x10_14 +x11_14 +x12_14 +x13_14 +x15_14 +x16_14 +x17_14 = 1;
+x1_15 +x2_15 +x3_15 +x4_15 +x5_15 +x6_15 +x7_15 +x8_15 +x9_15 +x10_15 +x11_15 +x12_15 +x13_15 +x14_15 +x16_15 +x17_15 = 1;
+x1_16 +x2_16 +x3_16 +x4_16 +x5_16 +x6_16 +x7_16 +x8_16 +x9_16 +x10_16 +x11_16 +x12_16 +x13_16 +x14_16 +x15_16 +x17_16 = 1;
+x1_17 +x2_17 +x3_17 +x4_17 +x5_17 +x6_17 +x7_17 +x8_17 +x9_17 +x10_17 +x11_17 +x12_17 +x13_17 +x14_17 +x15_17 +x16_17 = 1;
